647
1728
777
446
2198
1377
943
776
250
2134
1545
92
1510
1135
1136
795
619
2102
527
1093
522
1098
2082
1440
1111
2035
2140
1208
2006
2222
671
1122
2359
414
547
2345
1740
726
920
2251
936
2165
376
108
439
333
1079
2063
336
2140
